language Essence 1.3

letting p be
        partition({1, 5, 6, 10, 12, 13, 15, 24, 29, 30, 31, 35, 36, 37, 41, 50, 54, 55, 56, 59, 60, 62, 64, 67, 71, 76,
                   77},
                  {2, 3, 7, 8, 9, 11, 17, 18, 21, 22, 25, 26, 38, 40, 42, 45, 46, 49, 51, 53, 58, 61, 63, 65, 66, 70,
                   75},
                  {4, 14, 16, 19, 20, 23, 27, 28, 32, 33, 34, 39, 43, 44, 47, 48, 52, 57, 68, 69, 72, 73, 74, 78})
